NAME : OCPPP.gtsp.10014.tour
COMMENT : Length = 10014
COMMENT : Found by GLKH [Keld Helsgaun] Thu Jul 14 22:39:38 2022
TYPE : TOUR
DIMENSION : 16
TOUR_SECTION
2
3
27
12
7
5
10
13
16
17
29
20
21
24
25
32
-1
EOF
